set S := 1 2 3;
set D := 11, 13, 14;


param I_max := 3;

param c_total := 10;

param c_min_sd :=
	1 11 0
	1 13 0
	1 14 0
	2 11 0
	2 13 0
	2 14 0
	3 11 0
	3 13 0
	3 14 0
;

param c_max_sd :=
	1 11 10
	1 13 10
	1 14 10
	2 11 10
	2 13 10
	2 14 10
	3 11 10
	3 13 10
	3 14 10
;



set F[1,11] := (5,5) (8,8) (10,9);
set F[1,13] := (5,5) (8,8) (10,9);
set F[1,14] := (5,5) (8,8) (10,9);
set F[2,11] := (5,5) (8,8) (10,9);
set F[2,13] := (5,5) (8,8) (10,9);
set F[2,14] := (5,5) (8,8) (10,9);
set F[3,11] := (5,5) (8,8) (10,9);
set F[3,13] := (5,5) (8,8) (10,9);
set F[3,14] := (5,5) (8,8) (10,9);

param NumGroups :=
	1 11 	3
	1 13	3
	1 14	3
	2 11	3
	2 13	3
	2 14	3
	3 11	3
	3 13	3
	3 14	3
;

set FG[1,11,1] := (5,5);
set FG[1,11,2] := (8,8);
set FG[1,11,3] := (10,9);
set FG[1,13,1] := (5,5);
set FG[1,13,2] := (8,8);
set FG[1,13,3] := (10,9);
set FG[1,14,1] := (5,5);
set FG[1,14,2] := (8,8);
set FG[1,14,3] := (10,9);
set FG[2,11,1] := (5,5);
set FG[2,11,2] := (8,8);
set FG[2,11,3] := (10,9);
set FG[2,13,1] := (5,5);
set FG[2,13,2] := (8,8);
set FG[2,13,3] := (10,9);
set FG[2,14,1] := (5,5);
set FG[2,14,2] := (8,8);
set FG[2,14,3] := (10,9);
set FG[3,11,1] := (5,5);
set FG[3,11,2] := (8,8);
set FG[3,11,3] := (10,9);
set FG[3,13,1] := (5,5);
set FG[3,13,2] := (8,8);
set FG[3,13,3] := (10,9);
set FG[3,14,1] := (5,5);
set FG[3,14,2] := (8,8);
set FG[3,14,3] := (10,9);


set V:= 1,2,3,4,5,6,7,8,9,10,11,12,13,14;
param A:   1  2  3  4  5  6  7  8  9  10 11 12 13 14:=
		1  0  1  1  0  0  0  0  1  0  0  0  0  0  0
		2  1  0  1  1  0  0  0  0  0  0  0  0  0  0
		3  1  1  0  0  0  1  0  0  0  0  0  0  0  0
		4  0  1  0  0  1  0  0  0  0  0  1  0  0  0
		5  0  0  0  1  0  1  1  0  0  0  0  0  0  0
		6  0  0  1  0  1  0  0  0  0  1  0  0  1  0
		7  0  0  0  0  1  0  0  1  0  0  0  0  0  0
		8  1  0  0  0  0  0  1  0  1  0  0  0  0  0
		9  0  0  0  0  0  0  0  1  0  1  0  1  0  1
		10 0  0  0  0  0  1  0  0  1  0  0  0  0  0
		11 0  0  0  1  0  0  0  0  0  0  0  1  0  1
		12 0  0  0  0  0  0  0  0  1  0  1  0  1  0
		13 0  0  0  0  0  1  0  0  0  0  0  1  0  1
		14 0  0  0  0  0  0  0  0  1  0  1  0  1  0;